# Solution for model problem_
# Objective value = 1.2272941545087610e+05
x(0_0) 0
x(0_1) 0
x(0_2) 0
x(0_3) 0
x(0_4) 0
x(0_5) 0
x(0_6) 0
x(0_7) 0
x(0_8) 0
x(0_9) 0
x(0_10) 1
x(1_11) 0
x(1_12) 0
x(1_13) 0
x(1_14) 0
x(1_15) 0
x(1_16) 0
x(1_17) 0
x(1_18) 0
x(1_19) 0
x(1_20) 0
x(1_21) 0
x(1_22) 0
x(1_23) 1
x(1_24) 0
x(1_25) 0
x(1_26) 0
x(1_27) 0
x(1_28) 0
x(1_29) 0
x(1_30) 0
x(2_31) 0
x(2_32) 0
x(2_33) 0
x(2_34) 0
x(2_35) 0
x(2_36) 0
x(2_37) 0
x(2_38) 0
x(2_39) 0
x(2_40) 0
x(2_41) 0
x(2_42) 0
x(2_43) 0
x(2_44) 0
x(2_45) 0
x(2_46) 0
x(2_47) 0
x(2_48) 0
x(2_49) 1
x(2_50) 0
x(3_51) 0
x(3_52) 0
x(3_53) 0
x(3_54) 0
x(3_55) 0
x(3_56) 0
x(3_57) 0
x(3_58) 0
x(3_59) 0
x(3_60) 0
x(3_61) 0
x(3_62) 0
x(3_63) 0
x(3_64) 0
x(3_65) 0
x(3_66) 0
x(3_67) 1
x(3_68) 0
x(3_69) 0
x(3_70) 0
x(4_71) 0
x(4_72) 0
x(4_73) 0
x(4_74) 0
x(4_75) 0
x(4_76) 0
x(4_77) 0
x(4_78) 0
x(4_79) 1
x(4_80) 0
x(4_81) 0
x(4_82) 0
x(5_83) 0
x(5_84) 0
x(5_85) 0
x(5_86) 0
x(5_87) 0
x(5_88) 0
x(5_89) 0
x(5_90) 0
x(5_91) 0
x(5_92) 0
x(5_93) 1
x(6_94) 0
x(6_95) 0
x(6_96) 0
x(6_97) 0
x(6_98) 0
x(6_99) 0
x(6_100) 0
x(6_101) 0
x(6_102) 0
x(6_103) 0
x(6_104) 0
x(6_105) 0
x(6_106) 0
x(6_107) 0
x(6_108) 0
x(6_109) 1
x(7_110) 0
x(7_111) 0
x(7_112) 0
x(7_113) 0
x(7_114) 1
x(7_115) 0
x(7_116) 0
x(7_117) 0
x(7_118) 0
x(7_119) 0
x(7_120) 0
x(7_121) 0
x(7_122) 0
x(8_123) 0
x(8_124) 0
x(8_125) 0
x(8_126) 0
x(8_127) 0
x(8_128) 0
x(8_129) 0
x(8_130) 0
x(8_131) 0
x(8_132) 0
x(8_133) 0
x(8_134) 0
x(8_135) 0
x(8_136) 0
x(8_137) 0
x(8_138) 0
x(8_139) 0
x(8_140) 1
x(8_141) 0
x(8_142) 0
x(9_143) 0
x(9_144) 0
x(9_145) 0
x(9_146) 0
x(9_147) 0
x(9_148) 0
x(9_149) 0
x(9_150) 0
x(9_151) 0
x(9_152) 0
x(9_153) 1
x(9_154) 0
x(9_155) 0
x(9_156) 0
x(9_157) 0
x(9_158) 0
x(9_159) 0
x(9_160) 0
x(9_161) 0
x(9_162) 0
x(10_163) 0
x(10_164) 0
x(10_165) 0
x(10_166) 0
x(10_167) 0
x(10_168) 1
x(10_169) 0
x(10_170) 0
x(10_171) 0
x(10_172) 0
x(10_173) 0
x(10_174) 0
x(10_175) 0
x(10_176) 0
x(10_177) 0
x(10_178) 0
x(10_179) 0
x(10_180) 0
x(10_181) 0
x(11_182) 0
x(11_183) 0
x(11_184) 0
x(11_185) 0
x(11_186) 0
x(11_187) 0
x(11_188) 0
x(11_189) 0
x(11_190) 0
x(11_191) 0
x(11_192) 0
x(11_193) 0
x(11_194) 0
x(11_195) 0
x(11_196) 0
x(11_197) 0
x(11_198) 0
x(11_199) 1
x(11_200) 0
x(12_201) 0
x(12_202) 0
x(12_203) 0
x(12_204) 1
x(12_205) 0
x(12_206) 0
x(12_207) 0
x(12_208) 0
x(12_209) 0
x(12_210) 0
x(12_211) 0
x(12_212) 0
x(13_213) 0
x(13_214) 0
x(13_215) 0
x(13_216) 0
x(13_217) 0
x(13_218) 1
x(13_219) 0
x(13_220) 0
x(13_221) 0
x(13_222) 0
x(13_223) 0
x(13_224) 0
x(13_225) 0
x(13_226) 0
x(13_227) 0
x(13_228) 0
x(13_229) 0
x(13_230) 0
x(13_231) 0
x(14_232) 0
x(14_233) 0
x(14_234) 0
x(14_235) 0
x(14_236) 0
x(14_237) 1
x(14_238) 0
x(14_239) 0
x(14_240) 0
x(14_241) 0
x(14_242) 0
x(14_243) 0
x(14_244) 0
x(14_245) 0
x(14_246) 0
x(14_247) 0
x(15_248) 0
x(15_249) 0
x(15_250) 0
x(15_251) 0
x(15_252) 1
x(15_253) 0
x(15_254) 0
x(15_255) 0
x(15_256) 0
x(15_257) 0
x(15_258) 0
x(15_259) 0
x(15_260) 0
x(15_261) 0
x(15_262) 0
x(15_263) 0
x(16_264) 1
x(16_265) 0
x(16_266) 0
x(16_267) 0
x(16_268) 0
x(16_269) 0
x(16_270) 0
x(16_271) 0
x(16_272) 0
x(16_273) 0
x(16_274) 0
x(17_275) 0
x(17_276) 0
x(17_277) 0
x(17_278) 0
x(17_279) 0
x(17_280) 0
x(17_281) 0
x(17_282) 0
x(17_283) 0
x(17_284) 0
x(17_285) 0
x(17_286) 0
x(17_287) 1
x(17_288) 0
x(17_289) 0
x(17_290) 0
x(17_291) 0
x(18_292) 0
x(18_293) 0
x(18_294) 0
x(18_295) 0
x(18_296) 0
x(18_297) 1
x(18_298) 0
x(18_299) 0
x(18_300) 0
x(18_301) 0
x(18_302) 0
x(18_303) 0
x(18_304) 0
x(18_305) 0
x(19_306) 0
x(19_307) 0
x(19_308) 0
x(19_309) 0
x(19_310) 0
x(19_311) 0
x(19_312) 0
x(19_313) 0
x(19_314) 0
x(19_315) 1
x(19_316) 0
x(19_317) 0
x(19_318) 0
x(19_319) 0
x(20_320) 1
x(20_321) 0
x(20_322) 0
x(20_323) 0
x(20_324) 0
x(20_325) 0
x(20_326) 0
x(20_327) 0
x(20_328) 0
x(20_329) 0
x(20_330) 0
x(21_331) 0
x(21_332) 0
x(21_333) 1
x(21_334) 0
x(21_335) 0
x(21_336) 0
x(21_337) 0
x(21_338) 0
x(21_339) 0
x(21_340) 0
x(21_341) 0
x(21_342) 0
x(21_343) 0
x(21_344) 0
x(21_345) 0
x(21_346) 0
x(21_347) 0
x(21_348) 0
x(22_349) 0
x(22_350) 0
x(22_351) 1
x(22_352) 0
x(22_353) 0
x(22_354) 0
x(22_355) 0
x(22_356) 0
x(22_357) 0
x(22_358) 0
x(22_359) 0
x(22_360) 0
x(22_361) 0
x(22_362) 0
x(22_363) 0
x(22_364) 0
x(23_365) 0
x(23_366) 0
x(23_367) 0
x(23_368) 0
x(23_369) 0
x(23_370) 0
x(23_371) 0
x(23_372) 0
x(23_373) 0
x(23_374) 0
x(23_375) 0
x(23_376) 0
x(23_377) 0
x(23_378) 1
x(23_379) 0
x(23_380) 0
x(24_381) 0
x(24_382) 0
x(24_383) 0
x(24_384) 0
x(24_385) 0
x(24_386) 0
x(24_387) 0
x(24_388) 0
x(24_389) 0
x(24_390) 0
x(24_391) 0
x(24_392) 1
x(24_393) 0
x(24_394) 0
x(25_395) 0
x(25_396) 0
x(25_397) 0
x(25_398) 0
x(25_399) 0
x(25_400) 0
x(25_401) 0
x(25_402) 0
x(25_403) 0
x(25_404) 0
x(25_405) 0
x(25_406) 0
x(25_407) 0
x(25_408) 1
x(26_409) 1
x(26_410) 0
x(26_411) 0
x(26_412) 0
x(26_413) 0
x(26_414) 0
x(26_415) 0
x(26_416) 0
x(26_417) 0
x(26_418) 0
x(26_419) 0
x(27_420) 1
x(27_421) 0
x(27_422) 0
x(27_423) 0
x(27_424) 0
x(27_425) 0
x(27_426) 0
x(27_427) 0
x(27_428) 0
x(27_429) 0
x(27_430) 0
x(27_431) 0
x(27_432) 0
x(27_433) 0
x(27_434) 0
x(27_435) 0
x(27_436) 0
x(27_437) 0
x(27_438) 0
x(27_439) 0
x(28_440) 1
x(28_441) 0
x(28_442) 0
x(28_443) 0
x(28_444) 0
x(28_445) 0
x(28_446) 0
x(28_447) 0
x(28_448) 0
x(28_449) 0
x(28_450) 0
x(28_451) 0
x(29_452) 0
x(29_453) 0
x(29_454) 0
x(29_455) 0
x(29_456) 0
x(29_457) 0
x(29_458) 0
x(29_459) 0
x(29_460) 0
x(29_461) 0
x(29_462) 0
x(29_463) 0
x(29_464) 1
x(30_465) 0
x(30_466) 0
x(30_467) 0
x(30_468) 0
x(30_469) 0
x(30_470) 0
x(30_471) 1
x(30_472) 0
x(30_473) 0
x(30_474) 0
x(30_475) 0
x(31_476) 1
x(31_477) 0
x(31_478) 0
x(31_479) 0
x(31_480) 0
x(31_481) 0
x(31_482) 0
x(31_483) 0
x(31_484) 0
x(31_485) 0
x(32_486) 1
x(32_487) 0
x(32_488) 0
x(32_489) 0
x(32_490) 0
x(32_491) 0
x(32_492) 0
x(32_493) 0
x(32_494) 0
x(32_495) 0
x(32_496) 0
x(32_497) 0
x(32_498) 0
x(32_499) 0
x(32_500) 0
x(32_501) 0
x(32_502) 0
x(32_503) 0
x(32_504) 0
x(33_505) 0
x(33_506) 0
x(33_507) 1
x(33_508) 0
x(33_509) 0
x(33_510) 0
x(33_511) 0
x(33_512) 0
x(33_513) 0
x(33_514) 0
x(33_515) 0
x(34_516) 0
x(34_517) 0
x(34_518) 0
x(34_519) 0
x(34_520) 0
x(34_521) 0
x(34_522) 0
x(34_523) 1
x(34_524) 0
x(34_525) 0
x(34_526) 0
x(34_527) 0
x(34_528) 0
x(34_529) 0
x(34_530) 0
x(34_531) 0
x(35_532) 1
x(35_533) 0
x(35_534) 0
x(35_535) 0
x(35_536) 0
x(35_537) 0
x(35_538) 0
x(35_539) 0
x(35_540) 0
x(35_541) 0
x(35_542) 0
x(36_543) 0
x(36_544) 0
x(36_545) 0
x(36_546) 0
x(36_547) 0
x(36_548) 0
x(36_549) 0
x(36_550) 0
x(36_551) 0
x(36_552) 0
x(36_553) 0
x(36_554) 1
x(36_555) 0
x(36_556) 0
x(36_557) 0
x(36_558) 0
x(37_559) 0
x(37_560) 0
x(37_561) 0
x(37_562) 0
x(37_563) 0
x(37_564) 0
x(37_565) 0
x(37_566) 0
x(37_567) 0
x(37_568) 0
x(37_569) 0
x(37_570) 0
x(37_571) 0
x(37_572) 0
x(37_573) 0
x(37_574) 0
x(37_575) 1
x(37_576) 0
x(38_577) 0
x(38_578) 0
x(38_579) 0
x(38_580) 0
x(38_581) 1
x(38_582) 0
x(38_583) 0
x(38_584) 0
x(38_585) 0
x(38_586) 0
x(38_587) 0
x(38_588) 0
x(38_589) 0
x(39_590) 0
x(39_591) 0
x(39_592) 0
x(39_593) 0
x(39_594) 0
x(39_595) 0
x(39_596) 0
x(39_597) 0
x(39_598) 0
x(39_599) 0
x(39_600) 0
x(39_601) 0
x(39_602) 0
x(39_603) 0
x(39_604) 1
x(39_605) 0
x(39_606) 0
x(39_607) 0
x(39_608) 0
x(39_609) 0
x(40_610) 0
x(40_611) 0
x(40_612) 0
x(40_613) 0
x(40_614) 0
x(40_615) 0
x(40_616) 0
x(40_617) 0
x(40_618) 0
x(40_619) 0
x(40_620) 0
x(40_621) 1
x(40_622) 0
x(41_623) 0
x(41_624) 0
x(41_625) 0
x(41_626) 0
x(41_627) 1
x(41_628) 0
x(41_629) 0
x(41_630) 0
x(41_631) 0
x(41_632) 0
x(41_633) 0
x(41_634) 0
x(41_635) 0
x(41_636) 0
x(42_637) 0
x(42_638) 1
x(42_639) 0
x(42_640) 0
x(42_641) 0
x(42_642) 0
x(42_643) 0
x(42_644) 0
x(42_645) 0
x(42_646) 0
x(42_647) 0
x(43_648) 0
x(43_649) 0
x(43_650) 0
x(43_651) 0
x(43_652) 1
x(43_653) 0
x(43_654) 0
x(43_655) 0
x(43_656) 0
x(43_657) 0
x(43_658) 0
x(43_659) 0
x(43_660) 0
x(43_661) 0
x(43_662) 0
x(43_663) 0
x(43_664) 0
x(43_665) 0
x(43_666) 0
x(43_667) 0
x(44_668) 0
x(44_669) 0
x(44_670) 0
x(44_671) 0
x(44_672) 0
x(44_673) 0
x(44_674) 0
x(44_675) 1
x(44_676) 0
x(44_677) 0
x(44_678) 0
x(45_679) 0
x(45_680) 0
x(45_681) 0
x(45_682) 0
x(45_683) 0
x(45_684) 0
x(45_685) 1
x(45_686) 0
x(45_687) 0
x(45_688) 0
x(45_689) 0
x(46_690) 0
x(46_691) 0
x(46_692) 0
x(46_693) 0
x(46_694) 0
x(46_695) 0
x(46_696) 0
x(46_697) 0
x(46_698) 0
x(46_699) 0
x(46_700) 1
x(46_701) 0
x(46_702) 0
x(46_703) 0
x(47_704) 0
x(47_705) 0
x(47_706) 0
x(47_707) 0
x(47_708) 0
x(47_709) 0
x(47_710) 0
x(47_711) 0
x(47_712) 0
x(47_713) 1
x(47_714) 0
x(47_715) 0
x(47_716) 0
x(47_717) 0
x_1_0 0
s_1_0 1.0254998767632060e+00
z_1_0 1
x_1_1 2.1957468461803484e+02
s_1_1 0
z_1_1 0
x_1_2 2.2036683993879097e+02
s_1_2 0
z_1_2 0
x_1_3 0
s_1_3 0.781857319365372
z_1_3 1
x_1_4 2.2135142218134683e+02
s_1_4 0
z_1_4 0
x_1_5 0
s_1_5 1.2008100234525045e+00
z_1_5 1
x_1_6 2.2071167347020798e+02
s_1_6 0
z_1_6 0
x_1_7 221.276399234304
s_1_7 0
z_1_7 0
x_1_8 0
s_1_8 6.5668632718734443e-01
z_1_8 1
x_1_9 2.1626113394181607e+02
s_1_9 0
z_1_9 0
x_1_10 2.1999513764166591e+02
s_1_10 0
z_1_10 0
x_1_11 2.1907595238461482e+02
s_1_11 0
z_1_11 0
x_1_12 0
s_1_12 6.1501783260609955e-01
z_1_12 1
x_1_13 2.2004264549165350e+02
s_1_13 0
z_1_13 0
x_1_14 2.1866008300729453e+02
s_1_14 0
z_1_14 0
x_1_15 0
s_1_15 1.2811812262807507e+00
z_1_15 1
x_1_16 2.2074196010082437e+02
s_1_16 0
z_1_16 0
x_1_17 2.1907143105054274e+02
s_1_17 0
z_1_17 0
x_1_18 2.1951977888680386e+02
s_1_18 0
z_1_18 0
x_1_19 2.1917619927948664e+02
s_1_19 0
z_1_19 0
x_1_20 2.1958366365171361e+02
s_1_20 0
z_1_20 0
x_1_21 2.2027037908369073e+02
s_1_21 0
z_1_21 0
x_1_22 0
s_1_22 9.7810711215424817e-01
z_1_22 1
x_1_23 0
s_1_23 4.3631115619791672e-01
z_1_23 1
x_1_24 0
s_1_24 8.6406829045154154e-01
z_1_24 1
x_1_25 0
s_1_25 9.5424902332888450e-01
z_1_25 1
x_1_26 2.1733111629727654e+02
s_1_26 0
z_1_26 0
x_1_27 0
s_1_27 6.8623163952725008e-01
z_1_27 1
x_1_28 0
s_1_28 9.0797348727937788e-01
z_1_28 1
x_1_29 0
s_1_29 9.6491315297316760e-01
z_1_29 1
x_1_30 0
s_1_30 1.0505251956637949e+00
z_1_30 1
x_1_31 0
s_1_31 1.0101227307750378e+00
z_1_31 1
x_1_32 2.2165930382254868e+02
s_1_32 0
z_1_32 0
x_1_33 0
s_1_33 7.9612937758793123e-01
z_1_33 1
x_1_34 0
s_1_34 4.0151461638743058e-01
z_1_34 1
x_1_35 0
s_1_35 1.2757035848917440e+00
z_1_35 1
x_1_36 0
s_1_36 8.3047168550547212e-01
z_1_36 1
x_1_37 0
s_1_37 0.833115968387574
z_1_37 1
x_1_38 2.2128680317662048e+02
s_1_38 0
z_1_38 0
x_1_39 0
s_1_39 7.8050535416696221e-01
z_1_39 1
x_1_40 4.9999530998141563e+04
s_1_40 5.0000469001858437e+04
z_1_40 5.0000469001858439e-01
x_1_41 2.1978434900333519e+02
s_1_41 0
z_1_41 0
x_1_42 2.1875441675842143e+02
s_1_42 0
z_1_42 0
x_1_43 221.202904975036
s_1_43 0
z_1_43 0
x_1_44 0
s_1_44 6.4204472262645140e-01
z_1_44 1
x_1_45 2.2111544279712808e+02
s_1_45 0
z_1_45 0
x_1_46 0
s_1_46 5.3155905194580555e-01
z_1_46 1
x_1_47 0
s_1_47 8.8836448965594172e-01
z_1_47 1
x_1_48 220.310583576554
s_1_48 0
z_1_48 0
x_1_49 2.2019394366186430e+02
s_1_49 0
z_1_49 0
x_1_50 2.1869741440889777e+02
s_1_50 0
z_1_50 0
x_1_51 2.2032946580834090e+02
s_1_51 0
z_1_51 0
x_1_52 2.2024005836434054e+02
s_1_52 0
z_1_52 0
x_1_53 2.1861566243226957e+02
s_1_53 0
z_1_53 0
x_1_54 2.2027707462605883e+02
s_1_54 0
z_1_54 0
x_1_55 2.2126986281666308e+02
s_1_55 0
z_1_55 0
x_1_56 2.1709429696946768e+02
s_1_56 0
z_1_56 0
x_1_57 0
s_1_57 1.0964960257988423e+00
z_1_57 1
x_1_58 219.436945317307
s_1_58 0
z_1_58 0
x_1_59 0
s_1_59 0.692306692697457
z_1_59 1
x_1_60 0
s_1_60 1.0147091998805990e+00
z_1_60 1
x_1_61 0
s_1_61 4.8535213741706684e-01
z_1_61 1
x_1_62 0
s_1_62 5.4095120052807033e-01
z_1_62 1
x_1_63 219.630370100954
s_1_63 0
z_1_63 0
x_1_64 0
s_1_64 9.1635920747648925e-01
z_1_64 1
x_1_65 2.2107936137168997e+02
s_1_65 0
z_1_65 0
x_1_66 2.2006493080034255e+02
s_1_66 0
z_1_66 0
x_1_67 0
s_1_67 4.5168189005926251e-01
z_1_67 1
x_1_68 0
s_1_68 4.5262358945910819e-01
z_1_68 1
x_1_69 2.2110502312192096e+02
s_1_69 0
z_1_69 0
x_1_70 4.9999418454936938e+04
s_1_70 5.0000581545063062e+04
z_1_70 5.0000581545063061e-01
x_1_71 0
s_1_71 9.1017840825952590e-01
z_1_71 1
x_1_72 0
s_1_72 1.2983333331067115e+00
z_1_72 1
x_1_73 2.2090968074509271e+02
s_1_73 0
z_1_73 0
x_1_74 0
s_1_74 7.1981128188781440e-01
z_1_74 1
x_1_75 220.957180837164
s_1_75 0
z_1_75 0
x_1_76 0
s_1_76 1.0495009258447681e+00
z_1_76 1
x_1_77 2.2019005206226706e+02
s_1_77 0
z_1_77 0
x_1_78 2.1836836245096634e+02
s_1_78 0
z_1_78 0
x_1_79 2.1936751286126059e+02
s_1_79 0
z_1_79 0
x_1_80 2.1972494823485016e+02
s_1_80 0
z_1_80 0
x_1_81 0
s_1_81 1.1073289642226882e+00
z_1_81 1
x_1_82 2.2125697224307208e+02
s_1_82 0
z_1_82 0
x_1_83 0
s_1_83 1.1016541752615012e+00
z_1_83 1
x_1_84 0
s_1_84 8.5858035978162661e-01
z_1_84 1
x_1_85 0
s_1_85 1.0273440781747922e+00
z_1_85 1
x_1_86 0
s_1_86 6.9299196405336261e-01
z_1_86 1
x_1_87 0
s_1_87 9.0906854893546551e-01
z_1_87 1
x_1_88 2.2050002251751130e+02
s_1_88 0
z_1_88 0
x_1_89 0
s_1_89 8.1026153507991694e-01
z_1_89 1
x_1_90 0
s_1_90 1.0880812043324113e+00
z_1_90 1
x_1_91 0
s_1_91 9.1333102840872016e-01
z_1_91 1
x_1_92 2.2044959982577114e+02
s_1_92 0
z_1_92 0
x_1_93 2.1939164539798480e+02
s_1_93 0
z_1_93 0
x_1_94 49999.6530023551
s_1_94 5.0000346997644891e+04
z_1_94 0.500003469976449
x_1_95 0
s_1_95 1.03149478539126
z_1_95 1
x_1_96 2.2055287923663241e+02
s_1_96 0
z_1_96 0
x_1_97 218.751514035271
s_1_97 0
z_1_97 0
x_1_98 2.2086971572040903e+02
s_1_98 0
z_1_98 0
x_1_99 221.026513139712
s_1_99 0
z_1_99 0
x_1_100 0
s_1_100 1.1215376299805939e+00
z_1_100 1
x_1_101 2.2044834142224272e+02
s_1_101 0
z_1_101 0
x_1_102 4.9999392848948657e+04
s_1_102 5.0000607151051343e+04
z_1_102 5.0000607151051346e-01
x_1_103 2.1944953652470690e+02
s_1_103 0
z_1_103 0
x_1_104 2.2010143686457860e+02
s_1_104 0
z_1_104 0
x_1_105 0
s_1_105 1.0385783724923385e+00
z_1_105 1
x_1_106 2.2087970386631184e+02
s_1_106 0
z_1_106 0
x_1_107 2.2063106795213508e+02
s_1_107 0
z_1_107 0
x_1_108 0
s_1_108 7.5900102790910751e-01
z_1_108 1
x_1_109 2.2048597925435143e+02
s_1_109 0
z_1_109 0
x_1_110 217.946855965996
s_1_110 0
z_1_110 0
x_1_111 2.2018604056629687e+02
s_1_111 0
z_1_111 0
x_1_112 2.1910619457251721e+02
s_1_112 0
z_1_112 0
x_1_113 0
s_1_113 1.1871665806975216e+00
z_1_113 1
x_1_114 2.2054230548533928e+02
s_1_114 0
z_1_114 0
x_1_115 2.2030197212844479e+02
s_1_115 0
z_1_115 0
x_1_116 0
s_1_116 7.4703482382756192e-01
z_1_116 1
x_1_117 2.1875400310474794e+02
s_1_117 0
z_1_117 0
x_1_118 2.1886711466125530e+02
s_1_118 0
z_1_118 0
x_1_119 0
s_1_119 6.4498242098488845e-01
z_1_119 1
x_1_120 0
s_1_120 9.8905075038783252e-01
z_1_120 1
x_1_121 2.2139752206764518e+02
s_1_121 0
z_1_121 0
x_1_122 0
s_1_122 3.2580900554603431e-01
z_1_122 1
x_1_123 2.2095161710678951e+02
s_1_123 0
z_1_123 0
x_1_124 0
s_1_124 7.8022545238491148e-01
z_1_124 1
x_1_125 2.1657415240071134e+02
s_1_125 0
z_1_125 0
x_1_126 0
s_1_126 5.6049037797492929e-01
z_1_126 1
x_1_127 0
s_1_127 1.0793868050677702e+00
z_1_127 1
x_1_128 0
s_1_128 7.6562051277142018e-01
z_1_128 1
x_1_129 2.2140868466253721e+02
s_1_129 0
z_1_129 0
x_1_130 2.2027422606665039e+02
s_1_130 0
z_1_130 0
x_1_131 2.1753140629827413e+02
s_1_131 0
z_1_131 0
x_1_132 4.9999740650267457e+04
s_1_132 5.0000259349732543e+04
z_1_132 5.0000259349732545e-01
x_1_133 2.1857608715816724e+02
s_1_133 0
z_1_133 0
x_1_134 0
s_1_134 7.7094048060826026e-01
z_1_134 1
x_1_135 0
s_1_135 7.8849216898379382e-01
z_1_135 1
x_1_136 49999.5422546613
s_1_136 50000.4577453387
z_1_136 0.500004577453387
x_1_137 2.2120788679131630e+02
s_1_137 0
z_1_137 0
x_1_138 0
s_1_138 0.739081029110821
z_1_138 1
x_1_139 0
s_1_139 6.9698358967434615e-01
z_1_139 1
x_1_140 2.1993188907951117e+02
s_1_140 0
z_1_140 0
x_1_141 2.1977848424575620e+02
s_1_141 0
z_1_141 0
x_1_142 2.2088003799458357e+02
s_1_142 0
z_1_142 0
x_1_143 0
s_1_143 1.0382974312524311e+00
z_1_143 1
x_1_144 2.2131408208864138e+02
s_1_144 0
z_1_144 0
x_1_145 0
s_1_145 5.4666633717715740e-01
z_1_145 1
x_1_146 4.9999774447979173e+04
s_1_146 5.0000225552020827e+04
z_1_146 5.0000225552020827e-01
x_1_147 2.2062219214252548e+02
s_1_147 0
z_1_147 0
x_1_148 2.1893810328281830e+02
s_1_148 0
z_1_148 0
x_1_149 0
s_1_149 4.9768874366418459e-01
z_1_149 1
x_1_150 2.1856896366178381e+02
s_1_150 0
z_1_150 0
x_1_151 0
s_1_151 1.0760868570068851e+00
z_1_151 1
x_1_152 2.1900025496351867e+02
s_1_152 0
z_1_152 0
x_1_153 0
s_1_153 5.9297628437343519e-01
z_1_153 1
x_1_154 0
s_1_154 1.1988996267318726e+00
z_1_154 1
x_1_155 221.550657714711
s_1_155 0
z_1_155 0
x_1_156 2.1985069905081156e+02
s_1_156 0
z_1_156 0
x_1_157 0
s_1_157 8.8426536985207349e-01
z_1_157 1
x_1_158 2.2135156259405750e+02
s_1_158 0
z_1_158 0
x_1_159 0
s_1_159 7.0777267380617559e-01
z_1_159 1
x_2_0 1.2202935645087610e+05
